==> SCALING              = 0
==> OUTPUTLOG            = 1
==> SBESTIMATE           = 5
==> MUTEXCALLBACKS       = 0
==> HEUREMPHASIS         = 0
FICO Xpress v8.13.3, Hyper, solve started 22:59:46, Jun 20, 2022
Heap usage: 574KB (peak 574KB, 1621KB system)
Minimizing MILP xprs_265534c3270 using up to 12 threads, with these control settings:
SCALING = 0
OUTPUTLOG = 1
SBESTIMATE = 5
MUTEXCALLBACKS = 0
HEUREMPHASIS = 0
Original problem has:
      2589 rows         1098 cols         8986 elements      1098 globals
Presolved problem has:
       781 rows          630 cols         3360 elements       630 globals
LP relaxation tightened
Presolve finished in 1 seconds
Heap usage: 1082KB (peak 2298KB, 1623KB system)

Coefficient range                    original                 solved        
  Coefficients   [min,max] : [ 1.00e+00,  1.00e+01] / [ 1.00e+00,  1.00e+01]
  RHS and bounds [min,max] : [ 1.00e+00,  5.10e+01] / [ 1.00e+00,  6.00e+01]
  Objective      [min,max] : [ 2.00e+00,  1.02e+02] / [ 2.00e+00,  9.76e+01]

Will try to keep branch and bound tree memory usage below 9.5GB
Starting concurrent solve with dual (1 thread)

 Concurrent-Solve,   1s
            Dual        
    objective   dual inf
 D  517.55467   .0000000
------- optimal --------
Concurrent statistics:
      Dual: 225 simplex iterations, 0.01s
Optimal solution found
 
   Its         Obj Value      S   Ninf  Nneg   Sum Dual Inf  Time
   225        517.554665      D      0     0        .000000     1
Dual solved problem
  225 simplex iterations in 0.01 seconds at time 1

Final objective                       : 5.175546651633665e+02
  Max primal violation      (abs/rel) :       0.0 /       0.0
  Max dual violation        (abs/rel) :       0.0 /       0.0
  Max complementarity viol. (abs/rel) :       0.0 /       0.0

Starting root cutting & heuristics
 
 Its Type    BestSoln    BestBound   Sols    Add    Del     Gap     GInf   Time
   1  K                 524.581409      0     12      0               14      1
 
Cuts in the matrix         : 12
Cut elements in the matrix : 980
*          524.581409   524.581409      1                  0.00%       0      1
 *** Search completed ***
Uncrunching matrix
Final MIP objective                   : 5.245814092890026e+02
Final MIP bound                       : 5.245814092890026e+02
  Solution time / primaldual integral :         1s/ 99.845004%
  Number of solutions found / nodes   :         1 /         1
  Max primal violation      (abs/rel) : 7.772e-16 / 7.772e-16
  Max integer violation     (abs    ) : 7.772e-16
